# Solution for model Model5
# Objective value = 41
y[0,0,3] 0
y[0,0,5] 0
y[0,0,6] 1
y[0,1,0] 0
y[0,1,2] 0
y[0,1,4] 1
y[0,2,2] 1
y[0,2,3] 0
y[0,2,6] 0
y[1,0,2] 0
y[1,0,3] 1
y[1,0,4] 0
y[1,1,1] 1
y[1,1,4] 0
y[1,1,6] 0
y[1,2,0] 0
y[1,2,1] 1
y[1,2,2] 0
y[2,0,2] 1
y[2,0,4] 0
y[2,0,6] 0
y[2,1,1] 0
y[2,1,4] 1
y[2,1,5] 0
y[2,2,0] 1
y[2,2,2] 0
y[2,2,5] 0
y[3,0,2] 0
y[3,0,5] 1
y[3,0,6] 0
y[3,1,0] 1
y[3,1,3] 0
y[3,1,4] 0
y[3,2,2] 0
y[3,2,3] 0
y[3,2,6] 1
y[4,0,1] 0
y[4,0,4] 1
y[4,0,5] 0
y[4,1,3] 0
y[4,1,4] 0
y[4,1,5] 1
y[4,2,2] 0
y[4,2,4] 0
y[4,2,6] 1
y[5,0,0] 1
y[5,0,4] 0
y[5,0,6] 0
y[5,1,0] 0
y[5,1,3] 1
y[5,1,5] 0
y[5,2,0] 0
y[5,2,5] 1
y[5,2,6] 0
y[6,0,2] 1
y[6,0,3] 0
y[6,0,4] 0
y[6,1,1] 0
y[6,1,2] 0
y[6,1,5] 1
y[6,2,0] 0
y[6,2,1] 1
y[6,2,5] 0
x[0,0,0,0] 0
x[0,0,0,1] 0
x[0,0,0,2] 1
x[0,0,1,0] 0
x[0,0,1,1] 0
x[0,0,1,2] 0
x[0,0,2,0] 0
x[0,0,2,1] 0
x[0,0,2,2] 1
x[0,0,3,0] 0
x[0,0,3,1] 0
x[0,0,3,2] 0
x[0,0,4,0] 0
x[0,0,4,1] 0
x[0,0,4,2] 0
x[0,0,5,0] 0
x[0,0,5,1] 0
x[0,0,5,2] 0
x[0,0,6,0] 0
x[0,0,6,1] 0
x[0,0,6,2] 0
x[0,1,0,0] 0
x[0,1,0,1] 0
x[0,1,0,2] 0
x[0,1,1,0] 0
x[0,1,1,1] 1
x[0,1,1,2] 0
x[0,1,2,0] 0
x[0,1,2,1] 0
x[0,1,2,2] 0
x[0,1,3,0] 0
x[0,1,3,1] 0
x[0,1,3,2] 0
x[0,1,4,0] 0
x[0,1,4,1] 0
x[0,1,4,2] 0
x[0,1,5,0] 0
x[0,1,5,1] 0
x[0,1,5,2] 0
x[0,1,6,0] 0
x[0,1,6,1] 1
x[0,1,6,2] 0
x[0,2,0,0] 0
x[0,2,0,1] 1
x[0,2,0,2] 0
x[0,2,1,0] 1
x[0,2,1,1] 0
x[0,2,1,2] 0
x[0,2,2,0] 0
x[0,2,2,1] 0
x[0,2,2,2] 0
x[0,2,3,0] 0
x[0,2,3,1] 1
x[0,2,3,2] 0
x[0,2,4,0] 0
x[0,2,4,1] 0
x[0,2,4,2] 1
x[0,2,5,0] 0
x[0,2,5,1] 0
x[0,2,5,2] 0
x[0,2,6,0] 0
x[0,2,6,1] 0
x[0,2,6,2] 0
x[1,0,0,0] 0
x[1,0,0,1] 0
x[1,0,0,2] 0
x[1,0,1,0] 0
x[1,0,1,1] 0
x[1,0,1,2] 0
x[1,0,2,0] 1
x[1,0,2,1] 1
x[1,0,2,2] 0
x[1,0,3,0] 0
x[1,0,3,1] 1
x[1,0,3,2] 0
x[1,0,4,0] 0
x[1,0,4,1] 0
x[1,0,4,2] 1
x[1,0,5,0] 0
x[1,0,5,1] 1
x[1,0,5,2] 0
x[1,0,6,0] 0
x[1,0,6,1] 0
x[1,0,6,2] 0
x[1,1,0,0] 0
x[1,1,0,1] 0
x[1,1,0,2] 0
x[1,1,1,0] 1
x[1,1,1,1] 0
x[1,1,1,2] 1
x[1,1,2,0] 1
x[1,1,2,1] 1
x[1,1,2,2] 0
x[1,1,3,0] 0
x[1,1,3,1] 0
x[1,1,3,2] 1
x[1,1,4,0] 0
x[1,1,4,1] 0
x[1,1,4,2] 1
x[1,1,5,0] 0
x[1,1,5,1] 0
x[1,1,5,2] 0
x[1,1,6,0] 1
x[1,1,6,1] 0
x[1,1,6,2] 0
x[1,2,0,0] 0
x[1,2,0,1] 0
x[1,2,0,2] 0
x[1,2,1,0] 1
x[1,2,1,1] 0
x[1,2,1,2] 0
x[1,2,2,0] 0
x[1,2,2,1] 0
x[1,2,2,2] 0
x[1,2,3,0] 0
x[1,2,3,1] 0
x[1,2,3,2] 0
x[1,2,4,0] 0
x[1,2,4,1] 0
x[1,2,4,2] 0
x[1,2,5,0] 0
x[1,2,5,1] 0
x[1,2,5,2] 0
x[1,2,6,0] 0
x[1,2,6,1] 0
x[1,2,6,2] 0
x[2,0,0,0] 0
x[2,0,0,1] 0
x[2,0,0,2] 0
x[2,0,1,0] 0
x[2,0,1,1] 0
x[2,0,1,2] 0
x[2,0,2,0] 0
x[2,0,2,1] 0
x[2,0,2,2] 0
x[2,0,3,0] 0
x[2,0,3,1] 0
x[2,0,3,2] 0
x[2,0,4,0] 0
x[2,0,4,1] 0
x[2,0,4,2] 0
x[2,0,5,0] 0
x[2,0,5,1] 0
x[2,0,5,2] 0
x[2,0,6,0] 0
x[2,0,6,1] 0
x[2,0,6,2] 0
x[2,1,0,0] 0
x[2,1,0,1] 0
x[2,1,0,2] 0
x[2,1,1,0] 0
x[2,1,1,1] 0
x[2,1,1,2] 0
x[2,1,2,0] 1
x[2,1,2,1] 0
x[2,1,2,2] 0
x[2,1,3,0] 0
x[2,1,3,1] 0
x[2,1,3,2] 0
x[2,1,4,0] 0
x[2,1,4,1] 0
x[2,1,4,2] 0
x[2,1,5,0] 0
x[2,1,5,1] 0
x[2,1,5,2] 0
x[2,1,6,0] 0
x[2,1,6,1] 0
x[2,1,6,2] 0
x[2,2,0,0] 0
x[2,2,0,1] 0
x[2,2,0,2] 0
x[2,2,1,0] 0
x[2,2,1,1] 0
x[2,2,1,2] 0
x[2,2,2,0] 1
x[2,2,2,1] 1
x[2,2,2,2] 0
x[2,2,3,0] 0
x[2,2,3,1] 0
x[2,2,3,2] 0
x[2,2,4,0] 0
x[2,2,4,1] 0
x[2,2,4,2] 0
x[2,2,5,0] 0
x[2,2,5,1] 0
x[2,2,5,2] 0
x[2,2,6,0] 0
x[2,2,6,1] 0
x[2,2,6,2] 0
x[3,0,0,0] 0
x[3,0,0,1] 0
x[3,0,0,2] 0
x[3,0,1,0] 0
x[3,0,1,1] 0
x[3,0,1,2] 0
x[3,0,2,0] 0
x[3,0,2,1] 0
x[3,0,2,2] 0
x[3,0,3,0] 0
x[3,0,3,1] 0
x[3,0,3,2] 1
x[3,0,4,0] 0
x[3,0,4,1] 1
x[3,0,4,2] 0
x[3,0,5,0] 0
x[3,0,5,1] 0
x[3,0,5,2] 1
x[3,0,6,0] 0
x[3,0,6,1] 1
x[3,0,6,2] 0
x[3,1,0,0] 0
x[3,1,0,1] 0
x[3,1,0,2] 0
x[3,1,1,0] 0
x[3,1,1,1] 0
x[3,1,1,2] 0
x[3,1,2,0] 0
x[3,1,2,1] 0
x[3,1,2,2] 0
x[3,1,3,0] 0
x[3,1,3,1] 0
x[3,1,3,2] 1
x[3,1,4,0] 0
x[3,1,4,1] 0
x[3,1,4,2] 0
x[3,1,5,0] 1
x[3,1,5,1] 1
x[3,1,5,2] 0
x[3,1,6,0] 0
x[3,1,6,1] 0
x[3,1,6,2] 0
x[3,2,0,0] 0
x[3,2,0,1] 0
x[3,2,0,2] 0
x[3,2,1,0] 0
x[3,2,1,1] 0
x[3,2,1,2] 0
x[3,2,2,0] 0
x[3,2,2,1] 0
x[3,2,2,2] 0
x[3,2,3,0] 0
x[3,2,3,1] 0
x[3,2,3,2] 0
x[3,2,4,0] 0
x[3,2,4,1] 0
x[3,2,4,2] 0
x[3,2,5,0] 0
x[3,2,5,1] 0
x[3,2,5,2] 1
x[3,2,6,0] 0
x[3,2,6,1] 0
x[3,2,6,2] 0
x[4,0,0,0] 0
x[4,0,0,1] 0
x[4,0,0,2] 0
x[4,0,1,0] 0
x[4,0,1,1] 0
x[4,0,1,2] 0
x[4,0,2,0] 0
x[4,0,2,1] 0
x[4,0,2,2] 0
x[4,0,3,0] 0
x[4,0,3,1] 0
x[4,0,3,2] 0
x[4,0,4,0] 0
x[4,0,4,1] 0
x[4,0,4,2] 0
x[4,0,5,0] 0
x[4,0,5,1] 0
x[4,0,5,2] 0
x[4,0,6,0] 0
x[4,0,6,1] 0
x[4,0,6,2] 0
x[4,1,0,0] 0
x[4,1,0,1] 0
x[4,1,0,2] 0
x[4,1,1,0] 0
x[4,1,1,1] 0
x[4,1,1,2] 0
x[4,1,2,0] 0
x[4,1,2,1] 0
x[4,1,2,2] 0
x[4,1,3,0] 0
x[4,1,3,1] 0
x[4,1,3,2] 0
x[4,1,4,0] 1
x[4,1,4,1] 0
x[4,1,4,2] 0
x[4,1,5,0] 0
x[4,1,5,1] 0
x[4,1,5,2] 0
x[4,1,6,0] 0
x[4,1,6,1] 0
x[4,1,6,2] 0
x[4,2,0,0] 0
x[4,2,0,1] 0
x[4,2,0,2] 0
x[4,2,1,0] 0
x[4,2,1,1] 0
x[4,2,1,2] 0
x[4,2,2,0] 0
x[4,2,2,1] 0
x[4,2,2,2] 0
x[4,2,3,0] 0
x[4,2,3,1] 0
x[4,2,3,2] 0
x[4,2,4,0] 1
x[4,2,4,1] 1
x[4,2,4,2] 0
x[4,2,5,0] 0
x[4,2,5,1] 0
x[4,2,5,2] 0
x[4,2,6,0] 0
x[4,2,6,1] 0
x[4,2,6,2] 0
x[5,0,0,0] 0
x[5,0,0,1] 0
x[5,0,0,2] 0
x[5,0,1,0] 0
x[5,0,1,1] 0
x[5,0,1,2] 0
x[5,0,2,0] 0
x[5,0,2,1] 0
x[5,0,2,2] 0
x[5,0,3,0] 0
x[5,0,3,1] 0
x[5,0,3,2] 0
x[5,0,4,0] 0
x[5,0,4,1] 0
x[5,0,4,2] 0
x[5,0,5,0] 0
x[5,0,5,1] 0
x[5,0,5,2] 1
x[5,0,6,0] 0
x[5,0,6,1] 0
x[5,0,6,2] 0
x[5,1,0,0] 0
x[5,1,0,1] 0
x[5,1,0,2] 0
x[5,1,1,0] 0
x[5,1,1,1] 0
x[5,1,1,2] 0
x[5,1,2,0] 0
x[5,1,2,1] 0
x[5,1,2,2] 0
x[5,1,3,0] 0
x[5,1,3,1] 0
x[5,1,3,2] 0
x[5,1,4,0] 0
x[5,1,4,1] 0
x[5,1,4,2] 0
x[5,1,5,0] 1
x[5,1,5,1] 0
x[5,1,5,2] 1
x[5,1,6,0] 0
x[5,1,6,1] 0
x[5,1,6,2] 0
x[5,2,0,0] 0
x[5,2,0,1] 0
x[5,2,0,2] 0
x[5,2,1,0] 0
x[5,2,1,1] 0
x[5,2,1,2] 0
x[5,2,2,0] 0
x[5,2,2,1] 0
x[5,2,2,2] 0
x[5,2,3,0] 0
x[5,2,3,1] 0
x[5,2,3,2] 0
x[5,2,4,0] 0
x[5,2,4,1] 0
x[5,2,4,2] 0
x[5,2,5,0] 0
x[5,2,5,1] 0
x[5,2,5,2] 0
x[5,2,6,0] 0
x[5,2,6,1] 0
x[5,2,6,2] 0
x[6,0,0,0] 0
x[6,0,0,1] 0
x[6,0,0,2] 0
x[6,0,1,0] 0
x[6,0,1,1] 0
x[6,0,1,2] 0
x[6,0,2,0] 0
x[6,0,2,1] 0
x[6,0,2,2] 0
x[6,0,3,0] 0
x[6,0,3,1] 0
x[6,0,3,2] 0
x[6,0,4,0] 0
x[6,0,4,1] 0
x[6,0,4,2] 0
x[6,0,5,0] 0
x[6,0,5,1] 0
x[6,0,5,2] 0
x[6,0,6,0] 0
x[6,0,6,1] 0
x[6,0,6,2] 0
x[6,1,0,0] 0
x[6,1,0,1] 0
x[6,1,0,2] 0
x[6,1,1,0] 0
x[6,1,1,1] 0
x[6,1,1,2] 0
x[6,1,2,0] 0
x[6,1,2,1] 0
x[6,1,2,2] 0
x[6,1,3,0] 0
x[6,1,3,1] 0
x[6,1,3,2] 0
x[6,1,4,0] 0
x[6,1,4,1] 0
x[6,1,4,2] 0
x[6,1,5,0] 0
x[6,1,5,1] 0
x[6,1,5,2] 0
x[6,1,6,0] 1
x[6,1,6,1] 0
x[6,1,6,2] 1
x[6,2,0,0] 0
x[6,2,0,1] 0
x[6,2,0,2] 0
x[6,2,1,0] 0
x[6,2,1,1] 0
x[6,2,1,2] 0
x[6,2,2,0] 0
x[6,2,2,1] 0
x[6,2,2,2] 0
x[6,2,3,0] 0
x[6,2,3,1] 0
x[6,2,3,2] 0
x[6,2,4,0] 0
x[6,2,4,1] 0
x[6,2,4,2] 0
x[6,2,5,0] 0
x[6,2,5,1] 0
x[6,2,5,2] 0
x[6,2,6,0] 0
x[6,2,6,1] 0
x[6,2,6,2] 0
s[0,0,3] 0
s[0,0,5] 0
s[0,0,6] 5.0000000000001119e+00
s[0,1,0] 0
s[0,1,2] 0
s[0,1,4] 2.0000000000000515e+00
s[0,2,2] 3
s[0,2,3] 0
s[0,2,6] 0
s[1,0,2] 0
s[1,0,3] 1.2999999999999966e+01
s[1,0,4] 0
s[1,1,1] 8.9999999999998543e+00
s[1,1,4] 0
s[1,1,6] 0
s[1,2,0] 0
s[1,2,1] 9.9999999999997158e-01
s[1,2,2] 0
s[2,0,2] 10
s[2,0,4] 0
s[2,0,6] 0
s[2,1,1] 0
s[2,1,4] 6.99999999999995
s[2,1,5] 0
s[2,2,0] 1.0000000000000977e+00
s[2,2,2] 0
s[2,2,5] 0
s[3,0,2] 0
s[3,0,5] 1.9000000000000107e+01
s[3,0,6] 0
s[3,1,0] 1.7000000000000107e+01
s[3,1,3] 0
s[3,1,4] 0
s[3,2,2] 0
s[3,2,3] 0
s[3,2,6] 13
s[4,0,1] 0
s[4,0,4] 2.2000000000000114e+01
s[4,0,5] 0
s[4,1,3] 0
s[4,1,4] 0
s[4,1,5] 0
s[4,2,2] 0
s[4,2,4] 0
s[4,2,6] 2.0000000000000114e+01
s[5,0,0] 8.0000000000000977e+00
s[5,0,4] 0
s[5,0,6] 0
s[5,1,0] 0
s[5,1,3] 2
s[5,1,5] 0
s[5,2,0] 0
s[5,2,5] 5.9999999999999964e+00
s[5,2,6] 0
s[6,0,2] 17
s[6,0,3] 0
s[6,0,4] 0
s[6,1,1] 0
s[6,1,2] 0
s[6,1,5] 1.2999999999999996e+01
s[6,2,0] 0
s[6,2,1] 1.5000000000000110e+01
s[6,2,5] 0
Z_FO 41
C568 0
C569 0
C570 1
C571 0
C572 1
C573 0
C574 1
C575 0
C576 0
C577 0
C578 1
C579 0
C580 0
C581 1
C582 0
C583 1
C584 0
C585 0
C586 1
C587 0
C588 0
